60
1 0 44
2 0 12
2 1 16
3 0 60
3 1 10
3 2 75
4 0 39
4 1 30
4 2 34
4 3 34
5 0 59
5 1 42
5 2 21
5 3 59
5 4 41
6 0 15
6 1 74
6 2 53
6 3 7
6 4 72
6 5 76
7 0 72
7 1 51
7 2 64
7 3 5
7 4 54
7 5 17
7 6 17
8 0 68
8 1 32
8 2 9
8 3 10
8 4 43
8 5 21
8 6 79
8 7 69
9 0 78
9 1 62
9 2 3
9 3 72
9 4 22
9 5 58
9 6 1
9 7 47
9 8 19
10 0 9
10 1 69
10 2 21
10 3 26
10 4 75
10 5 34
10 6 80
10 7 41
10 8 75
10 9 13
11 0 76
11 1 62
11 2 56
11 3 19
11 4 6
11 5 64
11 6 52
11 7 10
11 8 49
11 9 78
11 10 68
12 0 55
12 1 66
12 2 14
12 3 66
12 4 32
12 5 48
12 6 49
12 7 37
12 8 8
12 9 77
12 10 62
12 11 4
13 0 49
13 1 74
13 2 25
13 3 69
13 4 64
13 5 59
13 6 35
13 7 56
13 8 20
13 9 63
13 10 1
13 11 60
13 12 38
14 0 56
14 1 43
14 2 9
14 3 20
14 4 13
14 5 62
14 6 14
14 7 53
14 8 65
14 9 36
14 10 62
14 11 69
14 12 79
14 13 44
15 0 42
15 1 53
15 2 26
15 3 6
15 4 78
15 5 28
15 6 33
15 7 16
15 8 32
15 9 42
15 10 2
15 11 13
15 12 31
15 13 65
15 14 53
16 0 45
16 1 46
16 2 42
16 3 26
16 4 52
16 5 9
16 6 77
16 7 74
16 8 67
16 9 59
16 10 54
16 11 49
16 12 54
16 13 53
16 14 1
16 15 73
17 0 65
17 1 32
17 2 59
17 3 45
17 4 64
17 5 36
17 6 37
17 7 33
17 8 52
17 9 39
17 10 25
17 11 53
17 12 62
17 13 16
17 14 3
17 15 38
17 16 30
18 0 20
18 1 29
18 2 49
18 3 44
18 4 66
18 5 38
18 6 53
18 7 69
18 8 60
18 9 66
18 10 6
18 11 67
18 12 18
18 13 46
18 14 72
18 15 61
18 16 47
18 17 54
19 0 18
19 1 71
19 2 50
19 3 77
19 4 30
19 5 55
19 6 34
19 7 10
19 8 52
19 9 70
19 10 63
19 11 17
19 12 2
19 13 32
19 14 47
19 15 15
19 16 7
19 17 36
19 18 58
20 0 49
20 1 14
20 2 30
20 3 37
20 4 33
20 5 39
20 6 73
20 7 28
20 8 31
20 9 52
20 10 17
20 11 4
20 12 80
20 13 71
20 14 42
20 15 51
20 16 36
20 17 1
20 18 41
20 19 24
21 0 5
21 1 52
21 2 43
21 3 48
21 4 54
21 5 37
21 6 45
21 7 41
21 8 27
21 9 41
21 10 19
21 11 75
21 12 57
21 13 55
21 14 41
21 15 50
21 16 69
21 17 80
21 18 62
21 19 36
21 20 21
22 0 27
22 1 30
22 2 45
22 3 29
22 4 48
22 5 3
22 6 78
22 7 78
22 8 53
22 9 35
22 10 29
22 11 31
22 12 30
22 13 14
22 14 28
22 15 57
22 16 52
22 17 47
22 18 40
22 19 18
22 20 24
22 21 30
23 0 57
23 1 42
23 2 17
23 3 80
23 4 71
23 5 54
23 6 80
23 7 11
23 8 68
23 9 75
23 10 7
23 11 61
23 12 11
23 13 32
23 14 22
23 15 60
23 16 77
23 17 78
23 18 55
23 19 67
23 20 40
23 21 21
23 22 2
24 0 39
24 1 30
24 2 37
24 3 45
24 4 80
24 5 77
24 6 18
24 7 76
24 8 66
24 9 61
24 10 10
24 11 6
24 12 4
24 13 14
24 14 20
24 15 44
24 16 30
24 17 22
24 18 73
24 19 32
24 20 7
24 21 35
24 22 56
24 23 5
25 0 77
25 1 7
25 2 11
25 3 70
25 4 79
25 5 43
25 6 64
25 7 51
25 8 25
25 9 7
25 10 64
25 11 62
25 12 75
25 13 53
25 14 46
25 15 31
25 16 74
25 17 58
25 18 66
25 19 14
25 20 21
25 21 9
25 22 67
25 23 63
25 24 44
26 0 11
26 1 35
26 2 37
26 3 15
26 4 15
26 5 52
26 6 64
26 7 66
26 8 37
26 9 29
26 10 73
26 11 1
26 12 61
26 13 73
26 14 42
26 15 48
26 16 25
26 17 23
26 18 61
26 19 11
26 20 10
26 21 25
26 22 38
26 23 27
26 24 42
26 25 7
27 0 40
27 1 40
27 2 37
27 3 36
27 4 25
27 5 15
27 6 5
27 7 29
27 8 53
27 9 72
27 10 44
27 11 30
27 12 34
27 13 17
27 14 16
27 15 53
27 16 54
27 17 62
27 18 19
27 19 15
27 20 55
27 21 20
27 22 61
27 23 4
27 24 30
27 25 63
27 26 3
28 0 10
28 1 23
28 2 74
28 3 64
28 4 33
28 5 41
28 6 67
28 7 37
28 8 62
28 9 51
28 10 25
28 11 17
28 12 4
28 13 74
28 14 80
28 15 46
28 16 51
28 17 26
28 18 56
28 19 66
28 20 80
28 21 61
28 22 64
28 23 21
28 24 67
28 25 19
28 26 5
28 27 35
29 0 54
29 1 18
29 2 37
29 3 52
29 4 25
29 5 52
29 6 53
29 7 27
29 8 20
29 9 39
29 10 38
29 11 24
29 12 3
29 13 43
29 14 19
29 15 59
29 16 25
29 17 12
29 18 5
29 19 47
29 20 58
29 21 63
29 22 31
29 23 55
29 24 23
29 25 64
29 26 11
29 27 59
29 28 48
30 0 58
30 1 51
30 2 78
30 3 13
30 4 7
30 5 80
30 6 15
30 7 53
30 8 35
30 9 44
30 10 33
30 11 73
30 12 80
30 13 46
30 14 38
30 15 76
30 16 39
30 17 44
30 18 12
30 19 22
30 20 47
30 21 36
30 22 45
30 23 32
30 24 34
30 25 72
30 26 31
30 27 18
30 28 71
30 29 27
31 0 50
31 1 52
31 2 51
31 3 22
31 4 10
31 5 61
31 6 26
31 7 36
31 8 20
31 9 28
31 10 3
31 11 41
31 12 21
31 13 38
31 14 25
31 15 21
31 16 18
31 17 48
31 18 5
31 19 79
31 20 59
31 21 25
31 22 24
31 23 9
31 24 46
31 25 62
31 26 41
31 27 16
31 28 10
31 29 18
31 30 2
32 0 23
32 1 23
32 2 37
32 3 62
32 4 69
32 5 7
32 6 76
32 7 22
32 8 76
32 9 20
32 10 71
32 11 62
32 12 23
32 13 34
32 14 55
32 15 60
32 16 36
32 17 74
32 18 29
32 19 29
32 20 28
32 21 1
32 22 78
32 23 40
32 24 47
32 25 16
32 26 16
32 27 37
32 28 44
32 29 12
32 30 28
32 31 39
33 0 15
33 1 76
33 2 62
33 3 48
33 4 66
33 5 78
33 6 23
33 7 52
33 8 51
33 9 61
33 10 79
33 11 18
33 12 32
33 13 18
33 14 70
33 15 10
33 16 65
33 17 39
33 18 63
33 19 30
33 20 31
33 21 4
33 22 66
33 23 1
33 24 68
33 25 73
33 26 17
33 27 16
33 28 33
33 29 16
33 30 14
33 31 18
33 32 29
34 0 6
34 1 37
34 2 61
34 3 79
34 4 18
34 5 27
34 6 77
34 7 43
34 8 78
34 9 38
34 10 60
34 11 79
34 12 10
34 13 68
34 14 12
34 15 48
34 16 64
34 17 44
34 18 35
34 19 59
34 20 75
34 21 32
34 22 52
34 23 18
34 24 36
34 25 34
34 26 44
34 27 27
34 28 64
34 29 58
34 30 26
34 31 22
34 32 65
34 33 35
35 0 29
35 1 42
35 2 74
35 3 49
35 4 75
35 5 42
35 6 8
35 7 17
35 8 63
35 9 58
35 10 10
35 11 64
35 12 69
35 13 54
35 14 6
35 15 25
35 16 48
35 17 65
35 18 15
35 19 9
35 20 50
35 21 27
35 22 25
35 23 33
35 24 55
35 25 71
35 26 63
35 27 27
35 28 28
35 29 30
35 30 26
35 31 47
35 32 39
35 33 65
35 34 26
36 0 31
36 1 70
36 2 14
36 3 59
36 4 79
36 5 26
36 6 63
36 7 16
36 8 19
36 9 77
36 10 24
36 11 25
36 12 51
36 13 3
36 14 57
36 15 7
36 16 12
36 17 77
36 18 75
36 19 7
36 20 53
36 21 43
36 22 44
36 23 52
36 24 51
36 25 61
36 26 78
36 27 22
36 28 53
36 29 43
36 30 31
36 31 13
36 32 56
36 33 11
36 34 56
36 35 25
37 0 35
37 1 23
37 2 55
37 3 57
37 4 68
37 5 23
37 6 7
37 7 54
37 8 73
37 9 38
37 10 10
37 11 16
37 12 29
37 13 73
37 14 73
37 15 71
37 16 35
37 17 10
37 18 47
37 19 75
37 20 31
37 21 30
37 22 19
37 23 15
37 24 12
37 25 53
37 26 65
37 27 9
37 28 18
37 29 36
37 30 66
37 31 37
37 32 75
37 33 76
37 34 17
37 35 61
37 36 35
38 0 16
38 1 76
38 2 72
38 3 21
38 4 47
38 5 19
38 6 53
38 7 15
38 8 26
38 9 7
38 10 59
38 11 55
38 12 4
38 13 3
38 14 55
38 15 33
38 16 55
38 17 80
38 18 68
38 19 21
38 20 11
38 21 51
38 22 15
38 23 13
38 24 32
38 25 57
38 26 40
38 27 40
38 28 26
38 29 26
38 30 54
38 31 67
38 32 79
38 33 73
38 34 57
38 35 34
38 36 31
38 37 50
39 0 54
39 1 46
39 2 8
39 3 16
39 4 3
39 5 80
39 6 68
39 7 42
39 8 67
39 9 40
39 10 29
39 11 60
39 12 63
39 13 60
39 14 66
39 15 18
39 16 8
39 17 12
39 18 64
39 19 73
39 20 57
39 21 59
39 22 48
39 23 6
39 24 27
39 25 62
39 26 21
39 27 10
39 28 18
39 29 52
39 30 53
39 31 16
39 32 71
39 33 68
39 34 44
39 35 63
39 36 70
39 37 36
39 38 36
40 0 20
40 1 47
40 2 25
40 3 47
40 4 39
40 5 45
40 6 70
40 7 42
40 8 57
40 9 60
40 10 15
40 11 6
40 12 14
40 13 71
40 14 54
40 15 40
40 16 40
40 17 50
40 18 67
40 19 29
40 20 54
40 21 28
40 22 54
40 23 27
40 24 7
40 25 61
40 26 52
40 27 68
40 28 6
40 29 44
40 30 42
40 31 41
40 32 66
40 33 68
40 34 26
40 35 38
40 36 51
40 37 20
40 38 23
40 39 34
41 0 74
41 1 46
41 2 42
41 3 57
41 4 36
41 5 51
41 6 59
41 7 58
41 8 43
41 9 67
41 10 26
41 11 64
41 12 43
41 13 15
41 14 45
41 15 75
41 16 40
41 17 2
41 18 66
41 19 33
41 20 74
41 21 67
41 22 3
41 23 70
41 24 18
41 25 51
41 26 52
41 27 40
41 28 77
41 29 68
41 30 74
41 31 38
41 32 20
41 33 75
41 34 47
41 35 53
41 36 56
41 37 65
41 38 51
41 39 31
41 40 74
42 0 5
42 1 14
42 2 49
42 3 40
42 4 36
42 5 48
42 6 76
42 7 57
42 8 7
42 9 27
42 10 23
42 11 55
42 12 44
42 13 5
42 14 77
42 15 54
42 16 38
42 17 1
42 18 71
42 19 39
42 20 53
42 21 77
42 22 63
42 23 45
42 24 48
42 25 69
42 26 56
42 27 73
42 28 77
42 29 20
42 30 26
42 31 9
42 32 49
42 33 70
42 34 66
42 35 3
42 36 70
42 37 23
42 38 20
42 39 75
42 40 32
42 41 14
43 0 47
43 1 13
43 2 64
43 3 62
43 4 16
43 5 45
43 6 65
43 7 53
43 8 2
43 9 29
43 10 55
43 11 52
43 12 9
43 13 8
43 14 6
43 15 65
43 16 71
43 17 74
43 18 55
43 19 42
43 20 48
43 21 12
43 22 33
43 23 30
43 24 63
43 25 18
43 26 49
43 27 12
43 28 41
43 29 17
43 30 70
43 31 21
43 32 74
43 33 37
43 34 41
43 35 32
43 36 29
43 37 27
43 38 33
43 39 17
43 40 70
43 41 64
43 42 6
44 0 23
44 1 10
44 2 35
44 3 4
44 4 62
44 5 76
44 6 27
44 7 4
44 8 36
44 9 69
44 10 49
44 11 33
44 12 77
44 13 52
44 14 51
44 15 51
44 16 57
44 17 45
44 18 25
44 19 26
44 20 26
44 21 60
44 22 76
44 23 63
44 24 10
44 25 4
44 26 36
44 27 61
44 28 50
44 29 29
44 30 79
44 31 38
44 32 7
44 33 77
44 34 25
44 35 63
44 36 71
44 37 54
44 38 39
44 39 2
44 40 70
44 41 60
44 42 42
44 43 80
45 0 18
45 1 59
45 2 22
45 3 12
45 4 27
45 5 72
45 6 56
45 7 68
45 8 71
45 9 63
45 10 8
45 11 22
45 12 77
45 13 6
45 14 16
45 15 40
45 16 4
45 17 63
45 18 77
45 19 41
45 20 6
45 21 42
45 22 48
45 23 45
45 24 78
45 25 28
45 26 22
45 27 67
45 28 39
45 29 25
45 30 18
45 31 32
45 32 71
45 33 74
45 34 38
45 35 1
45 36 19
45 37 77
45 38 29
45 39 17
45 40 5
45 41 38
45 42 38
45 43 53
45 44 58
46 0 67
46 1 55
46 2 62
46 3 62
46 4 19
46 5 44
46 6 10
46 7 4
46 8 75
46 9 13
46 10 2
46 11 39
46 12 10
46 13 8
46 14 36
46 15 54
46 16 34
46 17 22
46 18 5
46 19 61
46 20 9
46 21 61
46 22 9
46 23 19
46 24 52
46 25 63
46 26 22
46 27 45
46 28 24
46 29 45
46 30 80
46 31 69
46 32 61
46 33 56
46 34 58
46 35 10
46 36 1
46 37 21
46 38 80
46 39 34
46 40 75
46 41 63
46 42 48
46 43 26
46 44 37
46 45 62
47 0 70
47 1 35
47 2 14
47 3 33
47 4 11
47 5 53
47 6 46
47 7 67
47 8 64
47 9 66
47 10 52
47 11 64
47 12 35
47 13 43
47 14 23
47 15 57
47 16 13
47 17 33
47 18 56
47 19 49
47 20 65
47 21 28
47 22 78
47 23 14
47 24 79
47 25 15
47 26 23
47 27 9
47 28 76
47 29 70
47 30 42
47 31 34
47 32 53
47 33 24
47 34 22
47 35 34
47 36 62
47 37 20
47 38 33
47 39 33
47 40 22
47 41 77
47 42 72
47 43 42
47 44 78
47 45 40
47 46 26
48 0 6
48 1 17
48 2 71
48 3 25
48 4 28
48 5 21
48 6 45
48 7 2
48 8 71
48 9 40
48 10 61
48 11 16
48 12 37
48 13 29
48 14 62
48 15 46
48 16 33
48 17 22
48 18 21
48 19 36
48 20 2
48 21 49
48 22 3
48 23 72
48 24 14
48 25 79
48 26 2
48 27 78
48 28 22
48 29 39
48 30 20
48 31 53
48 32 34
48 33 68
48 34 15
48 35 42
48 36 15
48 37 38
48 38 47
48 39 35
48 40 29
48 41 74
48 42 75
48 43 56
48 44 67
48 45 7
48 46 75
48 47 31
49 0 16
49 1 40
49 2 48
49 3 71
49 4 67
49 5 14
49 6 15
49 7 75
49 8 50
49 9 8
49 10 55
49 11 37
49 12 35
49 13 22
49 14 62
49 15 16
49 16 12
49 17 62
49 18 40
49 19 71
49 20 61
49 21 34
49 22 76
49 23 28
49 24 73
49 25 79
49 26 63
49 27 5
49 28 62
49 29 68
49 30 31
49 31 51
49 32 25
49 33 65
49 34 71
49 35 50
49 36 18
49 37 19
49 38 41
49 39 37
49 40 4
49 41 66
49 42 70
49 43 34
49 44 32
49 45 65
49 46 9
49 47 1
49 48 8
50 0 11
50 1 17
50 2 79
50 3 74
50 4 5
50 5 56
50 6 8
50 7 1
50 8 18
50 9 44
50 10 17
50 11 20
50 12 15
50 13 16
50 14 29
50 15 14
50 16 68
50 17 66
50 18 73
50 19 19
50 20 20
50 21 26
50 22 64
50 23 33
50 24 67
50 25 50
50 26 59
50 27 38
50 28 6
50 29 26
50 30 54
50 31 44
50 32 73
50 33 67
50 34 70
50 35 52
50 36 57
50 37 30
50 38 50
50 39 24
50 40 28
50 41 42
50 42 9
50 43 47
50 44 70
50 45 29
50 46 25
50 47 7
50 48 63
50 49 14
51 0 56
51 1 40
51 2 63
51 3 28
51 4 13
51 5 17
51 6 59
51 7 80
51 8 47
51 9 61
51 10 77
51 11 28
51 12 57
51 13 4
51 14 25
51 15 69
51 16 39
51 17 76
51 18 40
51 19 70
51 20 75
51 21 34
51 22 55
51 23 3
51 24 17
51 25 33
51 26 27
51 27 60
51 28 28
51 29 7
51 30 60
51 31 52
51 32 77
51 33 12
51 34 72
51 35 51
51 36 76
51 37 37
51 38 32
51 39 3
51 40 62
51 41 7
51 42 61
51 43 75
51 44 77
51 45 27
51 46 15
51 47 58
51 48 77
51 49 61
51 50 60
52 0 32
52 1 40
52 2 75
52 3 42
52 4 23
52 5 67
52 6 39
52 7 2
52 8 78
52 9 74
52 10 70
52 11 14
52 12 69
52 13 15
52 14 55
52 15 41
52 16 39
52 17 19
52 18 43
52 19 33
52 20 48
52 21 16
52 22 71
52 23 38
52 24 46
52 25 3
52 26 25
52 27 38
52 28 53
52 29 15
52 30 74
52 31 32
52 32 26
52 33 46
52 34 22
52 35 47
52 36 22
52 37 43
52 38 53
52 39 69
52 40 27
52 41 33
52 42 58
52 43 23
52 44 14
52 45 55
52 46 75
52 47 72
52 48 28
52 49 11
52 50 8
52 51 37
53 0 23
53 1 19
53 2 12
53 3 24
53 4 24
53 5 55
53 6 66
53 7 42
53 8 53
53 9 5
53 10 79
53 11 30
53 12 9
53 13 57
53 14 47
53 15 30
53 16 56
53 17 47
53 18 60
53 19 51
53 20 53
53 21 42
53 22 29
53 23 38
53 24 53
53 25 8
53 26 74
53 27 1
53 28 54
53 29 18
53 30 2
53 31 60
53 32 30
53 33 11
53 34 22
53 35 77
53 36 60
53 37 20
53 38 57
53 39 48
53 40 26
53 41 1
53 42 13
53 43 2
53 44 18
53 45 10
53 46 53
53 47 51
53 48 71
53 49 28
53 50 39
53 51 32
53 52 24
54 0 63
54 1 71
54 2 55
54 3 76
54 4 57
54 5 65
54 6 77
54 7 73
54 8 75
54 9 22
54 10 32
54 11 57
54 12 36
54 13 1
54 14 14
54 15 75
54 16 77
54 17 48
54 18 15
54 19 65
54 20 27
54 21 19
54 22 42
54 23 3
54 24 6
54 25 71
54 26 59
54 27 54
54 28 51
54 29 30
54 30 71
54 31 75
54 32 68
54 33 57
54 34 67
54 35 16
54 36 76
54 37 59
54 38 28
54 39 29
54 40 78
54 41 68
54 42 69
54 43 49
54 44 32
54 45 29
54 46 3
54 47 18
54 48 41
54 49 69
54 50 39
54 51 58
54 52 51
54 53 39
55 0 23
55 1 59
55 2 26
55 3 6
55 4 5
55 5 26
55 6 16
55 7 50
55 8 71
55 9 48
55 10 76
55 11 32
55 12 19
55 13 75
55 14 56
55 15 64
55 16 58
55 17 4
55 18 58
55 19 50
55 20 26
55 21 61
55 22 26
55 23 38
55 24 33
55 25 19
55 26 25
55 27 41
55 28 62
55 29 3
55 30 17
55 31 44
55 32 27
55 33 19
55 34 38
55 35 34
55 36 35
55 37 35
55 38 6
55 39 4
55 40 56
55 41 36
55 42 25
55 43 52
55 44 79
55 45 1
55 46 61
55 47 74
55 48 78
55 49 58
55 50 52
55 51 26
55 52 9
55 53 11
55 54 7
56 0 45
56 1 30
56 2 57
56 3 78
56 4 10
56 5 66
56 6 75
56 7 39
56 8 29
56 9 62
56 10 4
56 11 36
56 12 31
56 13 43
56 14 67
56 15 2
56 16 79
56 17 41
56 18 65
56 19 43
56 20 9
56 21 30
56 22 40
56 23 23
56 24 62
56 25 57
56 26 55
56 27 58
56 28 31
56 29 6
56 30 72
56 31 36
56 32 64
56 33 46
56 34 36
56 35 56
56 36 56
56 37 22
56 38 67
56 39 31
56 40 3
56 41 10
56 42 18
56 43 67
56 44 50
56 45 22
56 46 41
56 47 74
56 48 14
56 49 64
56 50 77
56 51 3
56 52 31
56 53 21
56 54 47
56 55 6
57 0 53
57 1 58
57 2 57
57 3 61
57 4 72
57 5 4
57 6 27
57 7 38
57 8 20
57 9 55
57 10 20
57 11 56
57 12 51
57 13 8
57 14 16
57 15 60
57 16 64
57 17 60
57 18 22
57 19 28
57 20 69
57 21 18
57 22 38
57 23 13
57 24 57
57 25 62
57 26 9
57 27 31
57 28 69
57 29 46
57 30 39
57 31 10
57 32 35
57 33 28
57 34 80
57 35 75
57 36 38
57 37 17
57 38 55
57 39 80
57 40 57
57 41 61
57 42 58
57 43 44
57 44 45
57 45 77
57 46 36
57 47 62
57 48 71
57 49 24
57 50 3
57 51 15
57 52 67
57 53 1
57 54 58
57 55 6
57 56 71
58 0 57
58 1 26
58 2 65
58 3 54
58 4 48
58 5 26
58 6 73
58 7 35
58 8 71
58 9 1
58 10 9
58 11 15
58 12 39
58 13 11
58 14 76
58 15 58
58 16 55
58 17 23
58 18 55
58 19 24
58 20 54
58 21 73
58 22 30
58 23 34
58 24 8
58 25 47
58 26 36
58 27 14
58 28 60
58 29 8
58 30 24
58 31 13
58 32 36
58 33 26
58 34 42
58 35 44
58 36 36
58 37 8
58 38 71
58 39 27
58 40 1
58 41 33
58 42 19
58 43 35
58 44 79
58 45 54
58 46 65
58 47 31
58 48 46
58 49 2
58 50 57
58 51 60
58 52 43
58 53 58
58 54 47
58 55 29
58 56 41
58 57 14
59 0 47
59 1 26
59 2 32
59 3 17
59 4 21
59 5 1
59 6 58
59 7 42
59 8 12
59 9 63
59 10 40
59 11 44
59 12 65
59 13 6
59 14 13
59 15 80
59 16 65
59 17 74
59 18 34
59 19 2
59 20 80
59 21 24
59 22 14
59 23 49
59 24 72
59 25 64
59 26 62
59 27 55
59 28 3
59 29 32
59 30 32
59 31 8
59 32 59
59 33 32
59 34 18
59 35 28
59 36 41
59 37 70
59 38 49
59 39 69
59 40 13
59 41 7
59 42 57
59 43 4
59 44 18
59 45 65
59 46 77
59 47 47
59 48 20
59 49 38
59 50 35
59 51 41
59 52 26
59 53 37
59 54 18
59 55 17
59 56 40
59 57 18
59 58 78
